Grasp exp. instance_n_25_m_5_id_5.lp tipoLifted 0 szPool 5 nIteration 100 alpha 0.2 
Academic license - for non-commercial use only
Read LP format model from file ../input/instancesGenerated/instance_n_25_m_5_id_5.lp
Reading time = 0.00 seconds
: 5 rows, 25 columns, 125 nonzeros
Optimize a model with 5 rows, 25 columns and 125 nonzeros
Variable types: 0 continuous, 25 integer (25 binary)
Coefficient statistics:
  Matrix range     [1e+00, 1e+01]
  Objective range  [1e+00, 1e+01]
  Bounds range     [1e+00, 1e+00]
  RHS range        [5e+01, 7e+01]
Found heuristic solution: objective 66.0000000

Explored 0 nodes (0 simplex iterations) in 0.00 seconds
Thread count was 1 (of 8 available processors)

Solution count 1: 66 
No other solutions better than 0

Solution limit reached
Best objective 6.600000000000e+01, best bound -, gap -
C_1:	 7.00 x_1  = 1.000000 + 8.00 x_2  = 0.000000 + 3.00 x_3  = 0.953878 + 5.00 x_4  = 1.000000 + 2.00 x_5  = 1.000000 + 3.00 x_6  = 1.000000 + 6.00 x_7  = 0.000000 + 4.00 x_8  = 1.000000 + 2.00 x_9  = 0.000000 + 7.00 x_10  = 0.000000 + 3.00 x_11  = 0.000000 + 8.00 x_12  = 0.571279 + 1.00 x_13  = 1.000000 + 2.00 x_14  = 0.000000 + 1.00 x_15  = 0.000000 + 1.00 x_16  = 0.670860 + 5.00 x_17  = 0.716981 + 9.00 x_18  = 0.000000 + 2.00 x_19  = 0.000000 + 1.00 x_20  = 1.000000 + 1.00 x_21  = 1.000000 + 9.00 x_22  = 0.000000 + 6.00 x_23  = 1.000000 + 1.00 x_24  = 1.000000 + 4.00 x_25  = 0.000000 <= 50.00
C_2:	 4.00 x_1  = 1.000000 + 9.00 x_2  = 0.000000 + 8.00 x_3  = 0.953878 + 2.00 x_4  = 1.000000 + 6.00 x_5  = 1.000000 + 3.00 x_6  = 1.000000 + 8.00 x_7  = 0.000000 + 5.00 x_8  = 1.000000 + 5.00 x_9  = 0.000000 + 4.00 x_10  = 0.000000 + 8.00 x_11  = 0.000000 + 10.00 x_12  = 0.571279 + 9.00 x_13  = 1.000000 + 2.00 x_14  = 0.000000 + 1.00 x_15  = 0.000000 + 5.00 x_16  = 0.670860 + 6.00 x_17  = 0.716981 + 10.00 x_18  = 0.000000 + 7.00 x_19  = 0.000000 + 7.00 x_20  = 1.000000 + 2.00 x_21  = 1.000000 + 10.00 x_22  = 0.000000 + 3.00 x_23  = 1.000000 + 10.00 x_24  = 1.000000 + 1.00 x_25  = 0.000000 <= 72.00
C_3:	 3.00 x_1  = 1.000000 + 1.00 x_2  = 0.000000 + 9.00 x_3  = 0.953878 + 9.00 x_4  = 1.000000 + 1.00 x_5  = 1.000000 + 4.00 x_6  = 1.000000 + 4.00 x_7  = 0.000000 + 1.00 x_8  = 1.000000 + 2.00 x_9  = 0.000000 + 5.00 x_10  = 0.000000 + 8.00 x_11  = 0.000000 + 4.00 x_12  = 0.571279 + 4.00 x_13  = 1.000000 + 4.00 x_14  = 0.000000 + 1.00 x_15  = 0.000000 + 7.00 x_16  = 0.670860 + 2.00 x_17  = 0.716981 + 10.00 x_18  = 0.000000 + 5.00 x_19  = 0.000000 + 3.00 x_20  = 1.000000 + 2.00 x_21  = 1.000000 + 1.00 x_22  = 0.000000 + 8.00 x_23  = 1.000000 + 1.00 x_24  = 1.000000 + 7.00 x_25  = 0.000000 <= 53.00
C_4:	 6.00 x_1  = 1.000000 + 2.00 x_2  = 0.000000 + 6.00 x_3  = 0.953878 + 8.00 x_4  = 1.000000 + 3.00 x_5  = 1.000000 + 6.00 x_6  = 1.000000 + 10.00 x_7  = 0.000000 + 5.00 x_8  = 1.000000 + 6.00 x_9  = 0.000000 + 8.00 x_10  = 0.000000 + 7.00 x_11  = 0.000000 + 10.00 x_12  = 0.571279 + 1.00 x_13  = 1.000000 + 7.00 x_14  = 0.000000 + 1.00 x_15  = 0.000000 + 7.00 x_16  = 0.670860 + 4.00 x_17  = 0.716981 + 6.00 x_18  = 0.000000 + 10.00 x_19  = 0.000000 + 8.00 x_20  = 1.000000 + 8.00 x_21  = 1.000000 + 6.00 x_22  = 0.000000 + 1.00 x_23  = 1.000000 + 7.00 x_24  = 1.000000 + 2.00 x_25  = 0.000000 <= 72.00
C_5:	 3.00 x_1  = 1.000000 + 8.00 x_2  = 0.000000 + 2.00 x_3  = 0.953878 + 2.00 x_4  = 1.000000 + 10.00 x_5  = 1.000000 + 1.00 x_6  = 1.000000 + 7.00 x_7  = 0.000000 + 3.00 x_8  = 1.000000 + 6.00 x_9  = 0.000000 + 6.00 x_10  = 0.000000 + 8.00 x_11  = 0.000000 + 4.00 x_12  = 0.571279 + 5.00 x_13  = 1.000000 + 2.00 x_14  = 0.000000 + 1.00 x_15  = 0.000000 + 5.00 x_16  = 0.670860 + 9.00 x_17  = 0.716981 + 2.00 x_18  = 0.000000 + 7.00 x_19  = 0.000000 + 7.00 x_20  = 1.000000 + 4.00 x_21  = 1.000000 + 4.00 x_22  = 0.000000 + 3.00 x_23  = 1.000000 + 10.00 x_24  = 1.000000 + 5.00 x_25  = 0.000000 <= 62.00
Solution initial: 105.818658 
Number Constraints Used in Cover:5
GRASP Method!
Number cuts repeat: 0
value: 105.818658
Number Constraints Used in Cover:10
GRASP Method!
Number cuts repeat: 0
value: 105.818658
Number Constraints Used in Cover:22
GRASP Method!
Number cuts repeat: 0
value: 105.818658
Number Constraints Used in Cover:32
GRASP Method!
Number cuts repeat: 0
value: 105.818658
Number Constraints Used in Cover:39
GRASP Method!
Number cuts repeat: 0
value: 105.818658
Number Constraints Used in Cover:45
GRASP Method!
Number cuts repeat: 0
value: 105.818658
Number Constraints Used in Cover:56
GRASP Method!
Number cuts repeat: 0
value: 105.818658
Number Constraints Used in Cover:68
GRASP Method!
Number cuts repeat: 0
value: 105.818658
Number Constraints Used in Cover:78
GRASP Method!
Number cuts repeat: 0
value: 105.818658
Number Constraints Used in Cover:87
GRASP Method!
Number cuts repeat: 0
value: 105.818658
Number Constraints Used in Cover:93
GRASP Method!
Number cuts repeat: 0
value: 105.818658
Number Constraints Used in Cover:103
GRASP Method!
Number cuts repeat: 0
value: 105.818658
Number Constraints Used in Cover:111
GRASP Method!
Number cuts repeat: 0
value: 105.818658
Number Constraints Used in Cover:122
GRASP Method!
Number cuts repeat: 0
value: 105.818658
Number Constraints Used in Cover:139
GRASP Method!
Number cuts repeat: 0
value: 105.818658
Number Constraints Used in Cover:150
GRASP Method!
Number cuts repeat: 0
value: 105.818658
Number Constraints Used in Cover:165
GRASP Method!
Number cuts repeat: 0
value: 105.818658
Number Constraints Used in Cover:183
GRASP Method!
Number cuts repeat: 0
value: 105.818658
Number Constraints Used in Cover:194
GRASP Method!
Number cuts repeat: 0
value: 105.818658
Number Constraints Used in Cover:209
GRASP Method!
Number cuts repeat: 0
value: 105.818658
Number Constraints Used in Cover:222
GRASP Method!
Number cuts repeat: 0
value: 105.818658
Number Constraints Used in Cover:233
GRASP Method!
Number cuts repeat: 0
value: 105.818658
Number Constraints Used in Cover:244
GRASP Method!
Number cuts repeat: 0
value: 105.818658
Number Constraints Used in Cover:257
GRASP Method!
Number cuts repeat: 0
value: 105.818658
Number Constraints Used in Cover:267
GRASP Method!
Number cuts repeat: 0
value: 105.818658
Number Constraints Used in Cover:275
GRASP Method!
Number cuts repeat: 0
value: 105.818658
Number Constraints Used in Cover:282
GRASP Method!
Number cuts repeat: 0
value: 105.818658
Number Constraints Used in Cover:296
GRASP Method!
Number cuts repeat: 0
value: 105.818658
Number Constraints Used in Cover:311
GRASP Method!
Number cuts repeat: 0
value: 105.818658
Number Constraints Used in Cover:325
GRASP Method!
Number cuts repeat: 0
value: 105.818658
Number Constraints Used in Cover:336
GRASP Method!
Number cuts repeat: 0
value: 105.818658
Number Constraints Used in Cover:343
GRASP Method!
Number cuts repeat: 0
value: 105.818658
Number Constraints Used in Cover:361
GRASP Method!
Number cuts repeat: 0
value: 105.818658
Number Constraints Used in Cover:369
GRASP Method!
Number cuts repeat: 0
value: 105.818658
Number Constraints Used in Cover:379
GRASP Method!
Number cuts repeat: 0
value: 105.818658
Number Constraints Used in Cover:389
GRASP Method!
Number cuts repeat: 0
value: 105.818658
Number Constraints Used in Cover:394
GRASP Method!
Number cuts repeat: 0
value: 105.818658
Number Constraints Used in Cover:404
GRASP Method!
Number cuts repeat: 0
value: 105.818658
Number Constraints Used in Cover:415
GRASP Method!
Number cuts repeat: 0
value: 105.818658
Number Constraints Used in Cover:429
GRASP Method!
Number cuts repeat: 0
value: 105.818658
Number Constraints Used in Cover:444
GRASP Method!
Number cuts repeat: 0
value: 105.818658
Number Constraints Used in Cover:454
GRASP Method!
Number cuts repeat: 0
value: 105.818658
Number Constraints Used in Cover:464
GRASP Method!
Number cuts repeat: 0
value: 105.818658
Number Constraints Used in Cover:475
GRASP Method!
Number cuts repeat: 0
value: 105.818658
Number Constraints Used in Cover:482
GRASP Method!
Number cuts repeat: 0
value: 105.818658
Number Constraints Used in Cover:493
GRASP Method!
Number cuts repeat: 0
value: 105.818658
Number Constraints Used in Cover:503
GRASP Method!
Number cuts repeat: 0
value: 105.818658
Number Constraints Used in Cover:513
GRASP Method!
Number cuts repeat: 0
value: 105.818658
Number Constraints Used in Cover:522
GRASP Method!
Number cuts repeat: 0
value: 105.818658
Number Constraints Used in Cover:533
GRASP Method!
Number cuts repeat: 0
value: 105.818658
Number Constraints Used in Cover:543
GRASP Method!
Number cuts repeat: 0
value: 105.818658
Number Constraints Used in Cover:549
GRASP Method!
Number cuts repeat: 0
value: 105.818658
Number Constraints Used in Cover:560
GRASP Method!
Number cuts repeat: 0
value: 105.818658
Number Constraints Used in Cover:565
GRASP Method!
Number cuts repeat: 0
value: 105.818658
Number Constraints Used in Cover:577
GRASP Method!
Number cuts repeat: 0
value: 105.818658
Number Constraints Used in Cover:584
GRASP Method!
Number cuts repeat: 0
value: 105.818658
Number Constraints Used in Cover:596
GRASP Method!
Number cuts repeat: 0
value: 105.818658
Number Constraints Used in Cover:600
GRASP Method!
Number cuts repeat: 0
value: 105.818658
Number Constraints Used in Cover:606
GRASP Method!
Number cuts repeat: 0
value: 105.818658
Number Constraints Used in Cover:617
GRASP Method!
Number cuts repeat: 0
value: 105.818658
Number Constraints Used in Cover:629
GRASP Method!
Number cuts repeat: 0
value: 105.818658
Number Constraints Used in Cover:640
GRASP Method!
Number cuts repeat: 0
value: 105.818658
Number Constraints Used in Cover:651
GRASP Method!
Number cuts repeat: 0
value: 105.818658
Number Constraints Used in Cover:662
GRASP Method!
Number cuts repeat: 0
value: 105.818658
Number Constraints Used in Cover:669
GRASP Method!
Number cuts repeat: 0
value: 105.818658
Number Constraints Used in Cover:679
GRASP Method!
Number cuts repeat: 0
value: 105.818658
Number Constraints Used in Cover:696
GRASP Method!
Number cuts repeat: 0
value: 105.818658
Number Constraints Used in Cover:706
GRASP Method!
Number cuts repeat: 0
value: 105.818658
Number Constraints Used in Cover:721
GRASP Method!
Number cuts repeat: 0
value: 105.818658
Number Constraints Used in Cover:732
GRASP Method!
Number cuts repeat: 0
value: 105.818658
Number Constraints Used in Cover:755
GRASP Method!
Number cuts repeat: 0
value: 105.818658
Number Cuts Final: 767
